84
beta12 borophene B60H24 cluster (source: borophene-alzheimer-tau-ai, unmodified)
B       -6.09600000      -5.37166700       0.00000000
B       -3.55600000      -5.37166700       0.00000000
B       -6.09600000      -4.39500000       0.00000000
B       -3.55600000      -3.41833300       0.00000000
B       -6.09600000      -3.41833300       0.00000000
B       -6.09600000      -2.44166700       0.00000000
B       -3.55600000      -2.44166700       0.00000000
B       -6.09600000      -1.46500000       0.00000000
B       -3.55600000      -0.48833300       0.00000000
B       -6.09600000      -0.48833300       0.00000000
B       -6.09600000       0.48833300       0.00000000
B       -3.55600000       0.48833300       0.00000000
B       -6.09600000       1.46500000       0.00000000
B       -3.55600000       2.44166700       0.00000000
B       -6.09600000       2.44166700       0.00000000
B       -6.09600000       3.41833300       0.00000000
B       -3.55600000       3.41833300       0.00000000
B       -6.09600000       4.39500000       0.00000000
B       -3.55600000       5.37166700       0.00000000
B       -6.09600000       5.37166700       0.00000000
B       -1.01600000      -5.37166700       0.00000000
B        1.52400000      -5.37166700       0.00000000
B       -1.01600000      -4.39500000       0.00000000
B        1.52400000      -3.41833300       0.00000000
B       -1.01600000      -3.41833300       0.00000000
B       -1.01600000      -2.44166700       0.00000000
B        1.52400000      -2.44166700       0.00000000
B       -1.01600000      -1.46500000       0.00000000
B        1.52400000      -0.48833300       0.00000000
B       -1.01600000      -0.48833300       0.00000000
B       -1.01600000       0.48833300       0.00000000
B        1.52400000       0.48833300       0.00000000
B       -1.01600000       1.46500000       0.00000000
B        1.52400000       2.44166700       0.00000000
B       -1.01600000       2.44166700       0.00000000
B       -1.01600000       3.41833300       0.00000000
B        1.52400000       3.41833300       0.00000000
B       -1.01600000       4.39500000       0.00000000
B        1.52400000       5.37166700       0.00000000
B       -1.01600000       5.37166700       0.00000000
B        4.06400000      -5.37166700       0.00000000
B        6.60400000      -5.37166700       0.00000000
B        4.06400000      -4.39500000       0.00000000
B        6.60400000      -3.41833300       0.00000000
B        4.06400000      -3.41833300       0.00000000
B        4.06400000      -2.44166700       0.00000000
B        6.60400000      -2.44166700       0.00000000
B        4.06400000      -1.46500000       0.00000000
B        6.60400000      -0.48833300       0.00000000
B        4.06400000      -0.48833300       0.00000000
B        4.06400000       0.48833300       0.00000000
B        6.60400000       0.48833300       0.00000000
B        4.06400000       1.46500000       0.00000000
B        6.60400000       2.44166700       0.00000000
B        4.06400000       2.44166700       0.00000000
B        4.06400000       3.41833300       0.00000000
B        6.60400000       3.41833300       0.00000000
B        4.06400000       4.39500000       0.00000000
B        6.60400000       5.37166700       0.00000000
B        4.06400000       5.37166700       0.00000000
H       -6.09600000      -6.56166700       0.00000000
H       -3.55600000      -4.60833300       0.00000000
H       -3.55600000      -1.25166700       0.00000000
H       -3.55600000      -1.67833300       0.00000000
H       -3.55600000       1.67833300       0.00000000
H       -3.55600000       1.25166700       0.00000000
H       -3.55600000       4.60833300       0.00000000
H       -6.09600000       6.56166700       0.00000000
H       -1.01600000      -6.56166700       0.00000000
H        1.52400000      -4.60833300       0.00000000
H        1.52400000      -1.25166700       0.00000000
H        1.52400000      -1.67833300       0.00000000
H        1.52400000       1.67833300       0.00000000
H        1.52400000       1.25166700       0.00000000
H        1.52400000       4.60833300       0.00000000
H       -1.01600000       6.56166700       0.00000000
H        4.06400000      -6.56166700       0.00000000
H        6.60400000      -4.60833300       0.00000000
H        6.60400000      -1.25166700       0.00000000
H        6.60400000      -1.67833300       0.00000000
H        6.60400000       1.67833300       0.00000000
H        6.60400000       1.25166700       0.00000000
H        6.60400000       4.60833300       0.00000000
H        4.06400000       6.56166700       0.00000000
