101
beta12 B60H24 + n-butylammonium (Lys mimic), initial guess, total charge 1
B       -6.09600000      -5.37166700       0.00000000
B       -3.55600000      -5.37166700       0.00000000
B       -6.09600000      -4.39500000       0.00000000
B       -3.55600000      -3.41833300       0.00000000
B       -6.09600000      -3.41833300       0.00000000
B       -6.09600000      -2.44166700       0.00000000
B       -3.55600000      -2.44166700       0.00000000
B       -6.09600000      -1.46500000       0.00000000
B       -3.55600000      -0.48833300       0.00000000
B       -6.09600000      -0.48833300       0.00000000
B       -6.09600000       0.48833300       0.00000000
B       -3.55600000       0.48833300       0.00000000
B       -6.09600000       1.46500000       0.00000000
B       -3.55600000       2.44166700       0.00000000
B       -6.09600000       2.44166700       0.00000000
B       -6.09600000       3.41833300       0.00000000
B       -3.55600000       3.41833300       0.00000000
B       -6.09600000       4.39500000       0.00000000
B       -3.55600000       5.37166700       0.00000000
B       -6.09600000       5.37166700       0.00000000
B       -1.01600000      -5.37166700       0.00000000
B        1.52400000      -5.37166700       0.00000000
B       -1.01600000      -4.39500000       0.00000000
B        1.52400000      -3.41833300       0.00000000
B       -1.01600000      -3.41833300       0.00000000
B       -1.01600000      -2.44166700       0.00000000
B        1.52400000      -2.44166700       0.00000000
B       -1.01600000      -1.46500000       0.00000000
B        1.52400000      -0.48833300       0.00000000
B       -1.01600000      -0.48833300       0.00000000
B       -1.01600000       0.48833300       0.00000000
B        1.52400000       0.48833300       0.00000000
B       -1.01600000       1.46500000       0.00000000
B        1.52400000       2.44166700       0.00000000
B       -1.01600000       2.44166700       0.00000000
B       -1.01600000       3.41833300       0.00000000
B        1.52400000       3.41833300       0.00000000
B       -1.01600000       4.39500000       0.00000000
B        1.52400000       5.37166700       0.00000000
B       -1.01600000       5.37166700       0.00000000
B        4.06400000      -5.37166700       0.00000000
B        6.60400000      -5.37166700       0.00000000
B        4.06400000      -4.39500000       0.00000000
B        6.60400000      -3.41833300       0.00000000
B        4.06400000      -3.41833300       0.00000000
B        4.06400000      -2.44166700       0.00000000
B        6.60400000      -2.44166700       0.00000000
B        4.06400000      -1.46500000       0.00000000
B        6.60400000      -0.48833300       0.00000000
B        4.06400000      -0.48833300       0.00000000
B        4.06400000       0.48833300       0.00000000
B        6.60400000       0.48833300       0.00000000
B        4.06400000       1.46500000       0.00000000
B        6.60400000       2.44166700       0.00000000
B        4.06400000       2.44166700       0.00000000
B        4.06400000       3.41833300       0.00000000
B        6.60400000       3.41833300       0.00000000
B        4.06400000       4.39500000       0.00000000
B        6.60400000       5.37166700       0.00000000
B        4.06400000       5.37166700       0.00000000
H       -6.09600000      -6.56166700       0.00000000
H       -3.55600000      -4.60833300       0.00000000
H       -3.55600000      -1.25166700       0.00000000
H       -3.55600000      -1.67833300       0.00000000
H       -3.55600000       1.67833300       0.00000000
H       -3.55600000       1.25166700       0.00000000
H       -3.55600000       4.60833300       0.00000000
H       -6.09600000       6.56166700       0.00000000
H       -1.01600000      -6.56166700       0.00000000
H        1.52400000      -4.60833300       0.00000000
H        1.52400000      -1.25166700       0.00000000
H        1.52400000      -1.67833300       0.00000000
H        1.52400000       1.67833300       0.00000000
H        1.52400000       1.25166700       0.00000000
H        1.52400000       4.60833300       0.00000000
H       -1.01600000       6.56166700       0.00000000
H        4.06400000      -6.56166700       0.00000000
H        6.60400000      -4.60833300       0.00000000
H        6.60400000      -1.25166700       0.00000000
H        6.60400000      -1.67833300       0.00000000
H        6.60400000       1.67833300       0.00000000
H        6.60400000       1.25166700       0.00000000
H        6.60400000       4.60833300       0.00000000
H        4.06400000       6.56166700       0.00000000
C       -0.03414345       0.16174152       8.28682920
C        0.55067003      -0.36134309       6.94020470
C       -0.24278999       0.18815796       5.70620050
C        0.35149532      -0.34195225       4.36530666
N       -0.44846579       0.21618055       3.20000000
H        0.01840293       1.25444251       8.33286025
H       -1.10810812      -0.13160384       8.40978294
H        0.54879819      -0.24396954       9.15521428
H        1.63379787      -0.07882368       6.86460804
H        0.51347847      -1.45725612       6.94110890
H       -0.20736204       1.28501080       5.71344773
H       -1.32683204      -0.09238248       5.78988800
H        0.28168385      -1.43162619       4.29422860
H        1.41718335      -0.03451746       4.21669649
H       -0.41100129       1.24429814       3.17887484
H       -0.07174869      -0.12376047       2.27548978
H       -1.46505859      -0.05259634       3.25084949
