100
beta12 B60H24 + p-cresol (Tyr mimic), initial guess, total charge 0
B       -6.09600000      -5.37166700       0.00000000
B       -3.55600000      -5.37166700       0.00000000
B       -6.09600000      -4.39500000       0.00000000
B       -3.55600000      -3.41833300       0.00000000
B       -6.09600000      -3.41833300       0.00000000
B       -6.09600000      -2.44166700       0.00000000
B       -3.55600000      -2.44166700       0.00000000
B       -6.09600000      -1.46500000       0.00000000
B       -3.55600000      -0.48833300       0.00000000
B       -6.09600000      -0.48833300       0.00000000
B       -6.09600000       0.48833300       0.00000000
B       -3.55600000       0.48833300       0.00000000
B       -6.09600000       1.46500000       0.00000000
B       -3.55600000       2.44166700       0.00000000
B       -6.09600000       2.44166700       0.00000000
B       -6.09600000       3.41833300       0.00000000
B       -3.55600000       3.41833300       0.00000000
B       -6.09600000       4.39500000       0.00000000
B       -3.55600000       5.37166700       0.00000000
B       -6.09600000       5.37166700       0.00000000
B       -1.01600000      -5.37166700       0.00000000
B        1.52400000      -5.37166700       0.00000000
B       -1.01600000      -4.39500000       0.00000000
B        1.52400000      -3.41833300       0.00000000
B       -1.01600000      -3.41833300       0.00000000
B       -1.01600000      -2.44166700       0.00000000
B        1.52400000      -2.44166700       0.00000000
B       -1.01600000      -1.46500000       0.00000000
B        1.52400000      -0.48833300       0.00000000
B       -1.01600000      -0.48833300       0.00000000
B       -1.01600000       0.48833300       0.00000000
B        1.52400000       0.48833300       0.00000000
B       -1.01600000       1.46500000       0.00000000
B        1.52400000       2.44166700       0.00000000
B       -1.01600000       2.44166700       0.00000000
B       -1.01600000       3.41833300       0.00000000
B        1.52400000       3.41833300       0.00000000
B       -1.01600000       4.39500000       0.00000000
B        1.52400000       5.37166700       0.00000000
B       -1.01600000       5.37166700       0.00000000
B        4.06400000      -5.37166700       0.00000000
B        6.60400000      -5.37166700       0.00000000
B        4.06400000      -4.39500000       0.00000000
B        6.60400000      -3.41833300       0.00000000
B        4.06400000      -3.41833300       0.00000000
B        4.06400000      -2.44166700       0.00000000
B        6.60400000      -2.44166700       0.00000000
B        4.06400000      -1.46500000       0.00000000
B        6.60400000      -0.48833300       0.00000000
B        4.06400000      -0.48833300       0.00000000
B        4.06400000       0.48833300       0.00000000
B        6.60400000       0.48833300       0.00000000
B        4.06400000       1.46500000       0.00000000
B        6.60400000       2.44166700       0.00000000
B        4.06400000       2.44166700       0.00000000
B        4.06400000       3.41833300       0.00000000
B        6.60400000       3.41833300       0.00000000
B        4.06400000       4.39500000       0.00000000
B        6.60400000       5.37166700       0.00000000
B        4.06400000       5.37166700       0.00000000
H       -6.09600000      -6.56166700       0.00000000
H       -3.55600000      -4.60833300       0.00000000
H       -3.55600000      -1.25166700       0.00000000
H       -3.55600000      -1.67833300       0.00000000
H       -3.55600000       1.67833300       0.00000000
H       -3.55600000       1.25166700       0.00000000
H       -3.55600000       4.60833300       0.00000000
H       -6.09600000       6.56166700       0.00000000
H       -1.01600000      -6.56166700       0.00000000
H        1.52400000      -4.60833300       0.00000000
H        1.52400000      -1.25166700       0.00000000
H        1.52400000      -1.67833300       0.00000000
H        1.52400000       1.67833300       0.00000000
H        1.52400000       1.25166700       0.00000000
H        1.52400000       4.60833300       0.00000000
H       -1.01600000       6.56166700       0.00000000
H        4.06400000      -6.56166700       0.00000000
H        6.60400000      -4.60833300       0.00000000
H        6.60400000      -1.25166700       0.00000000
H        6.60400000      -1.67833300       0.00000000
H        6.60400000       1.67833300       0.00000000
H        6.60400000       1.25166700       0.00000000
H        6.60400000       4.60833300       0.00000000
H        4.06400000       6.56166700       0.00000000
C        0.12412811      -2.47001457       3.30553007
C        0.01744304      -0.97399789       3.27689024
C        1.17187121      -0.17941295       3.29208531
C        1.07411885       1.21421106       3.29727593
C       -0.18192497       1.81166266       3.29800952
O       -0.32375156       3.16787932       3.30365094
C       -1.33672375       1.03947156       3.29744695
C       -1.23814327      -0.35279771       3.29227112
H        0.14974992      -2.82342271       4.34087590
H       -0.72689936      -2.93216779       2.79428354
H        1.03178872      -2.80662634       2.79363018
H        2.15553088      -0.64364524       3.29918585
H        1.98132129       1.80945317       3.30382392
H        0.56034237       3.56920933       3.30162451
H       -2.31116497       1.51902108       3.30397171
H       -2.14768651      -0.94882300       3.29944431
