17
n-butylammonium, Lys sidechain mimic, charge 1
C        0.41432234      -0.05443903       5.08682920
C        0.99913582      -0.57752364       3.74020470
C        0.20567580      -0.02802259       2.50620050
C        0.79996111      -0.55813280       1.16530666
N        0.00000000       0.00000000       0.00000000
H        0.46686871       1.03826196       5.13286025
H       -0.65964233      -0.34778439       5.20978294
H        0.99726398      -0.46015009       5.95521428
H        2.08226366      -0.29500423       3.66460804
H        0.96194426      -1.67343666       3.74110890
H        0.24110375       1.06883025       2.51344773
H       -0.87836625      -0.30856303       2.58988800
H        0.73014964      -1.64780674       1.09422860
H        1.86564914      -0.25069801       1.01669649
H        0.03746450       1.02811759      -0.02112516
H        0.37671710      -0.33994102      -0.92451022
H       -1.01659280      -0.26877689       0.05084949
