16
p-cresol, Tyr sidechain mimic, charge 0
C        0.12412811      -2.47001457       0.00553007
C        0.01744304      -0.97399789      -0.02310976
C        1.17187121      -0.17941295      -0.00791469
C        1.07411885       1.21421106      -0.00272407
C       -0.18192497       1.81166266      -0.00199048
O       -0.32375156       3.16787932       0.00365094
C       -1.33672375       1.03947156      -0.00255305
C       -1.23814327      -0.35279771      -0.00772888
H        0.14974992      -2.82342271       1.04087590
H       -0.72689936      -2.93216779      -0.50571646
H        1.03178872      -2.80662634      -0.50636982
H        2.15553088      -0.64364524      -0.00081415
H        1.98132129       1.80945317       0.00382392
H        0.56034237       3.56920933       0.00162451
H       -2.31116497       1.51902108       0.00397171
H       -2.14768651      -0.94882300      -0.00055569
